(set-logic QF_FP)
(set-info :source |Random FP created by PyMPF|)
(set-info :category random)
(set-info :status unsat)
(declare-const x Float32)
(assert (= x ((_ to_fp 8 24) #x6BB6A340)))
(declare-const y Float32)
(assert (= y (fp #b1 #b00000000 #b11111111111111111111111)))
(declare-const z Float32)
(assert (= z (fp #b0 #b10010100 #b11100110000110101010110)))
(declare-const result Float32)
(assert (= result (fp.fma RTP x y z)))
(assert (not (= result (fp #b0 #b10010100 #b11100110000110101010110))))
(check-sat)
(exit)
